9
2147483647 32 37 52 16 59 86 68 48 
32 2147483647 57 48 13 82 52 90 54 
37 57 2147483647 20 88 55 28 22 33 
52 48 20 2147483647 42 27 74 37 59 
16 13 88 42 2147483647 53 33 52 51 
59 82 55 27 53 2147483647 88 76 51 
86 52 28 74 33 88 2147483647 68 15 
68 90 22 37 52 76 68 2147483647 54 
48 54 33 59 51 51 15 54 2147483647 
